     Program PWSCF v.6.4 starts on 19May2020 at 18:36:17

     K-points division:     npool     =      16
     R & G space division:  proc/nbgrp/npool/nimage =      64
     Waiting for input...
     Reading input from standard input

     Current dimensions of program PWSCF are:
     Max number of different atomic species (ntypx) = 10
     Max number of k-points (npk) =  40000
     Max angular momentum in pseudopotentials (lmaxx) =  3
               file Ni.pz-n-rrkjus_psl.0.1.UPF: wavefunction(s)  3D renormalized
               file Ni.pz-n-rrkjus_psl.0.1.UPF: wavefunction(s)  3D renormalized

     Found symmetry operation: I + (  0.0000 -0.5000 -0.5000)
     This is a supercell, fractional translations are disabled

     bravais-lattice index     =            0
     lattice parameter (alat)  =      15.8898  a.u.
     unit-cell volume          =    4011.9451 (a.u.)^3
     number of atoms/cell      =           64
     number of atomic types    =            3
     number of electrons       =       512.00
     number of Kohn-Sham states=          614
     kinetic-energy cutoff     =      40.0000  Ry
     charge density cutoff     =     240.0000  Ry
     convergence threshold     =      1.0E-13
     mixing beta               =       0.3000
     number of iterations used =            8  plain     mixing
     Exchange-correlation      = LDA ( 1  1  0  0 0 0)
     Noncollinear calculation without spin-orbit

     celldm(1)=  15.889796  celldm(2)=   0.000000  celldm(3)=   0.000000
     celldm(4)=   0.000000  celldm(5)=   0.000000  celldm(6)=   0.000000

     crystal axes: (cart. coord. in units of alat)
               a(1) = (   1.000000   0.000000   0.000000 )
               a(2) = (   0.000000   1.000000   0.000000 )
               a(3) = (   0.000000   0.000000   1.000000 )

     reciprocal axes: (cart. coord. in units 2 pi/alat)
               b(1) = (  1.000000  0.000000  0.000000 )
               b(2) = (  0.000000  1.000000  0.000000 )
               b(3) = (  0.000000  0.000000  1.000000 )

     PseudoPot. # 1 for Ni read from file:
     ./Ni.pz-n-rrkjus_psl.0.1.UPF
     MD5 check sum: 4def80e42349afdd14834ce81d852c61
     Pseudo is Ultrasoft + core correction, Zval = 10.0
     Generated using "atomic" code by A. Dal Corso v.5.0.2 svn rev. 9415
     Using radial grid of 1195 points,  6 beta functions with:
                l(1) =   0
                l(2) =   0
                l(3) =   1
                l(4) =   1
                l(5) =   2
                l(6) =   2
     Q(r) pseudized with 0 coefficients

     PseudoPot. # 2 for Ni read from file:
     ./Ni.pz-n-rrkjus_psl.0.1.UPF
     MD5 check sum: 4def80e42349afdd14834ce81d852c61
     Pseudo is Ultrasoft + core correction, Zval = 10.0
     Generated using "atomic" code by A. Dal Corso v.5.0.2 svn rev. 9415
     Using radial grid of 1195 points,  6 beta functions with:
                l(1) =   0
                l(2) =   0
                l(3) =   1
                l(4) =   1
                l(5) =   2
                l(6) =   2
     Q(r) pseudized with 0 coefficients

     PseudoPot. # 3 for O  read from file:
     ./O.pz-n-rrkjus_psl.0.1.UPF
     MD5 check sum: 6e384d5705d3ad042f52b90450e69d34
     Pseudo is Ultrasoft + core correction, Zval =  6.0
     Generated using "atomic" code by A. Dal Corso v.5.0.2 svn rev. 9415
     Using radial grid of 1095 points,  4 beta functions with:
                l(1) =   0
                l(2) =   0
                l(3) =   1
                l(4) =   1
     Q(r) pseudized with 0 coefficients

     atomic species   valence    mass     pseudopotential
        Ni1           10.00    58.69000     Ni( 1.00)
        Ni2           10.00    58.69000     Ni( 1.00)
        O              6.00    16.00000     O ( 1.00)

     Full LDA+U calculation (l_max = 2) with parameters (eV):
     U(  1) =   8.0000   J(  1) =   0.0000   B(  1) =   0.0000
     U(  2) =   8.0000   J(  2) =   0.0000   B(  2) =   0.0000

     No symmetry found

                                    s                        frac. trans.

      isym =  1     identity

 Time Reversal            0
 cryst.   s( 1) = (     1          0          0      )
                  (     0          1          0      )
                  (     0          0          1      )

 cart.    s( 1) = (  1.0000000  0.0000000  0.0000000 )
                  (  0.0000000  1.0000000  0.0000000 )
                  (  0.0000000  0.0000000  1.0000000 )

   Cartesian axes

     site n.     atom                  positions (alat units)
         1           Ni1 tau(   1) = (   0.0000000   0.0000000   0.0000000  )
         2           Ni2 tau(   2) = (   0.0000000   0.2500000   0.2500000  )
         3           Ni2 tau(   3) = (   0.2500000   0.0000000   0.2500000  )
         4           Ni2 tau(   4) = (   0.2500000   0.2500000   0.0000000  )
         5           Ni2 tau(   5) = (   0.0000000   0.0000000   0.5000000  )
         6           Ni2 tau(   6) = (   0.0000000   0.5000000   0.0000000  )
         7           Ni2 tau(   7) = (   0.5000000   0.0000000   0.0000000  )
         8           Ni1 tau(   8) = (   0.0000000   0.5000000   0.5000000  )
         9           Ni1 tau(   9) = (   0.5000000   0.2500000   0.2500000  )
        10           Ni1 tau(  10) = (   0.5000000   0.0000000   0.5000000  )
        11           Ni1 tau(  11) = (   0.5000000   0.5000000   0.0000000  )
        12           Ni1 tau(  12) = (   0.2500000   0.5000000   0.2500000  )
        13           Ni1 tau(  13) = (   0.0000000   0.2500000   0.7500000  )
        14           Ni1 tau(  14) = (   0.2500000   0.0000000   0.7500000  )
        15           Ni1 tau(  15) = (   0.2500000   0.2500000   0.5000000  )
        16           Ni1 tau(  16) = (   0.0000000   0.7500000   0.2500000  )
        17           Ni1 tau(  17) = (   0.2500000   0.7500000   0.0000000  )
        18           Ni1 tau(  18) = (   0.7500000   0.0000000   0.2500000  )
        19           Ni1 tau(  19) = (   0.7500000   0.2500000   0.0000000  )
        20           Ni2 tau(  20) = (   0.5000000   0.5000000   0.5000000  )
        21           Ni2 tau(  21) = (   0.2500000   0.5000000   0.7500000  )
        22           Ni2 tau(  22) = (   0.2500000   0.7500000   0.5000000  )
        23           Ni2 tau(  23) = (   0.5000000   0.2500000   0.7500000  )
        24           Ni2 tau(  24) = (   0.5000000   0.7500000   0.2500000  )
        25           Ni2 tau(  25) = (   0.7500000   0.5000000   0.2500000  )
        26           Ni2 tau(  26) = (   0.0000000   0.7500000   0.7500000  )
        27           Ni2 tau(  27) = (   0.7500000   0.0000000   0.7500000  )
        28           Ni2 tau(  28) = (   0.7500000   0.2500000   0.5000000  )
        29           Ni2 tau(  29) = (   0.7500000   0.7500000   0.0000000  )
        30           Ni1 tau(  30) = (   0.5000000   0.7500000   0.7500000  )
        31           Ni1 tau(  31) = (   0.7500000   0.5000000   0.7500000  )
        32           Ni1 tau(  32) = (   0.7500000   0.7500000   0.5000000  )
        33           O   tau(  33) = (   0.0000000   0.0000000   0.2500000  )
        34           O   tau(  34) = (   0.0000000   0.2500000   0.0000000  )
        35           O   tau(  35) = (   0.2500000   0.0000000   0.0000000  )
        36           O   tau(  36) = (   0.2500000   0.2500000   0.2500000  )
        37           O   tau(  37) = (   0.0000000   0.5000000   0.2500000  )
        38           O   tau(  38) = (   0.5000000   0.0000000   0.2500000  )
        39           O   tau(  39) = (   0.5000000   0.2500000   0.0000000  )
        40           O   tau(  40) = (   0.0000000   0.0000000   0.7500000  )
        41           O   tau(  41) = (   0.0000000   0.2500000   0.5000000  )
        42           O   tau(  42) = (   0.2500000   0.0000000   0.5000000  )
        43           O   tau(  43) = (   0.0000000   0.7500000   0.0000000  )
        44           O   tau(  44) = (   0.2500000   0.5000000   0.0000000  )
        45           O   tau(  45) = (   0.7500000   0.0000000   0.0000000  )
        46           O   tau(  46) = (   0.5000000   0.5000000   0.2500000  )
        47           O   tau(  47) = (   0.2500000   0.2500000   0.7500000  )
        48           O   tau(  48) = (   0.2500000   0.7500000   0.2500000  )
        49           O   tau(  49) = (   0.0000000   0.5000000   0.7500000  )
        50           O   tau(  50) = (   0.0000000   0.7500000   0.5000000  )
        51           O   tau(  51) = (   0.2500000   0.5000000   0.5000000  )
        52           O   tau(  52) = (   0.7500000   0.2500000   0.2500000  )
        53           O   tau(  53) = (   0.5000000   0.0000000   0.7500000  )
        54           O   tau(  54) = (   0.5000000   0.2500000   0.5000000  )
        55           O   tau(  55) = (   0.7500000   0.0000000   0.5000000  )
        56           O   tau(  56) = (   0.5000000   0.7500000   0.0000000  )
        57           O   tau(  57) = (   0.7500000   0.5000000   0.0000000  )
        58           O   tau(  58) = (   0.5000000   0.5000000   0.7500000  )
        59           O   tau(  59) = (   0.5000000   0.7500000   0.5000000  )
        60           O   tau(  60) = (   0.7500000   0.5000000   0.5000000  )
        61           O   tau(  61) = (   0.2500000   0.7500000   0.7500000  )
        62           O   tau(  62) = (   0.7500000   0.2500000   0.7500000  )
        63           O   tau(  63) = (   0.7500000   0.7500000   0.2500000  )
        64           O   tau(  64) = (   0.7500000   0.7500000   0.7500000  )

   Crystallographic axes

     site n.     atom                  positions (cryst. coord.)
         1           Ni1 tau(   1) = (  0.0000000  0.0000000  0.0000000  )
         2           Ni2 tau(   2) = (  0.0000000  0.2500000  0.2500000  )
         3           Ni2 tau(   3) = (  0.2500000  0.0000000  0.2500000  )
         4           Ni2 tau(   4) = (  0.2500000  0.2500000  0.0000000  )
         5           Ni2 tau(   5) = (  0.0000000  0.0000000  0.5000000  )
         6           Ni2 tau(   6) = (  0.0000000  0.5000000  0.0000000  )
         7           Ni2 tau(   7) = (  0.5000000  0.0000000  0.0000000  )
         8           Ni1 tau(   8) = (  0.0000000  0.5000000  0.5000000  )
         9           Ni1 tau(   9) = (  0.5000000  0.2500000  0.2500000  )
        10           Ni1 tau(  10) = (  0.5000000  0.0000000  0.5000000  )
        11           Ni1 tau(  11) = (  0.5000000  0.5000000  0.0000000  )
        12           Ni1 tau(  12) = (  0.2500000  0.5000000  0.2500000  )
        13           Ni1 tau(  13) = (  0.0000000  0.2500000  0.7500000  )
        14           Ni1 tau(  14) = (  0.2500000  0.0000000  0.7500000  )
        15           Ni1 tau(  15) = (  0.2500000  0.2500000  0.5000000  )
        16           Ni1 tau(  16) = (  0.0000000  0.7500000  0.2500000  )
        17           Ni1 tau(  17) = (  0.2500000  0.7500000  0.0000000  )
        18           Ni1 tau(  18) = (  0.7500000  0.0000000  0.2500000  )
        19           Ni1 tau(  19) = (  0.7500000  0.2500000  0.0000000  )
        20           Ni2 tau(  20) = (  0.5000000  0.5000000  0.5000000  )
        21           Ni2 tau(  21) = (  0.2500000  0.5000000  0.7500000  )
[...]
     1.0000   1.0000   1.0000   1.0000   1.0000   1.0000   1.0000   1.0000
     1.0000   1.0000   1.0000   1.0000   1.0000   1.0000   1.0000   1.0000
     1.0000   1.0000   1.0000   1.0000   1.0000   1.0000   1.0000   1.0000
     1.0000   1.0000   1.0000   1.0000   1.0000   1.0000   1.0000   1.0000
     1.0000   1.0000   1.0000   1.0000   1.0000   1.0000   1.0000   1.0000
     1.0000   1.0000   1.0000   1.0000   1.0000   1.0000   1.0000   1.0000
     1.0000   1.0000   1.0000   1.0000   1.0000   1.0000   1.0000   1.0000
     1.0000   1.0000   1.0000   1.0000   1.0000   1.0000   1.0000   1.0000
     1.0000   1.0000   1.0000   1.0000   1.0000   1.0000   1.0000   1.0000
     1.0000   1.0000   1.0000   1.0000   1.0000   1.0000   1.0000   1.0000
     1.0000   1.0000   1.0000   1.0000   1.0000   1.0000   1.0000   1.0000
     1.0000   1.0000   1.0000   1.0000   1.0000   1.0000   1.0000   1.0000
     1.0000   1.0000   1.0000   1.0000   1.0000   1.0000   1.0000   1.0000
     1.0000   1.0000   1.0000   1.0000   1.0000   1.0000   1.0000   1.0000
     1.0000   1.0000   1.0000   1.0000   1.0000   1.0000   1.0000   1.0000
     1.0000   1.0000   1.0000   1.0000   1.0000   1.0000   1.0000   1.0000
     1.0000   1.0000   1.0000   1.0000   1.0000   1.0000   1.0000   1.0000
     1.0000   1.0000   1.0000   1.0000   1.0000   1.0000   1.0000   1.0000
     1.0000   1.0000   1.0000   1.0000   1.0000   1.0000   1.0000   1.0000
     1.0000   1.0000   1.0000   1.0000   1.0000   1.0000   1.0000   1.0000
     1.0000   1.0000   1.0000   1.0000   1.0000   1.0000   1.0000   1.0000
     1.0000   1.0000   1.0000   1.0000   1.0000   1.0000   1.0000   1.0000
     1.0000   1.0000   1.0000   1.0000   1.0000   1.0000   1.0000   1.0000
     1.0000   1.0000   1.0000   1.0000   1.0000   1.0000   1.0000   1.0000
     1.0000   1.0000   1.0000   1.0000   1.0000   1.0000   1.0000   1.0000
     1.0000   1.0000   1.0000   1.0000   1.0000   1.0000   1.0000   1.0000
     1.0000   1.0000   1.0000   1.0000   1.0000   1.0000   1.0000   1.0000
     1.0000   1.0000   1.0000   1.0000   1.0000   1.0000   1.0000   1.0000
     1.0000   1.0000   1.0000   1.0000   1.0000   1.0000   1.0000   1.0000
     1.0000   1.0000   1.0000   1.0000   1.0000   1.0000   1.0000   1.0000
     1.0000   1.0000   1.0000   1.0000   1.0000   1.0000   1.0000   1.0000
     1.0000   1.0000   1.0000   1.0000   1.0000   1.0000   1.0000   1.0000
     1.0000   1.0000   1.0000   1.0000   1.0000   1.0000   1.0000   1.0000
     1.0000   1.0000   1.0000   1.0000   1.0000   1.0000   1.0000   1.0000
     1.0000   1.0000   1.0000   1.0000   1.0000   1.0000   1.0000   1.0000
     1.0000   1.0000   1.0000   1.0000   1.0000   1.0000   1.0000   1.0000
     1.0000   1.0000   1.0000   1.0000   1.0000   1.0000   1.0000   1.0000
     1.0000   1.0000   1.0000   1.0000   1.0000   1.0000   1.0000   1.0000
     1.0000   1.0000   1.0000   1.0000   1.0000   1.0000   1.0000   1.0000
     1.0000   1.0000   1.0000   1.0000   1.0000   1.0000   1.0000   1.0000
     1.0000   1.0000   1.0000   1.0000   1.0000   1.0000   1.0000   1.0000
     1.0000   1.0000   1.0000   1.0000   1.0000   1.0000   1.0000   1.0000
     1.0000   1.0000   1.0000   1.0000   1.0000   1.0000   1.0000   1.0000
     1.0000   1.0000   1.0000   1.0000   1.0000   1.0000   1.0000   1.0000
[...]
     1.0000   1.0000   1.0000   1.0000   1.0000   1.0000   1.0000   1.0000
     1.0000   1.0000   1.0000   1.0000   1.0000   1.0000   1.0000   1.0000
    -0.0000  -0.0000  -0.0000  -0.0000  -0.0000  -0.0000  -0.0000  -0.0000
    -0.0000  -0.0000  -0.0000  -0.0000  -0.0000  -0.0000  -0.0000  -0.0000
    -0.0000  -0.0000  -0.0000  -0.0000  -0.0000  -0.0000  -0.0000  -0.0000
    -0.0000  -0.0000  -0.0000  -0.0000  -0.0000  -0.0000  -0.0000  -0.0000
    -0.0000  -0.0000  -0.0000  -0.0000  -0.0000  -0.0000  -0.0000  -0.0000
    -0.0000  -0.0000  -0.0000  -0.0000  -0.0000  -0.0000  -0.0000  -0.0000
    -0.0000  -0.0000  -0.0000  -0.0000  -0.0000  -0.0000  -0.0000  -0.0000
    -0.0000  -0.0000  -0.0000  -0.0000  -0.0000  -0.0000  -0.0000  -0.0000
    -0.0000  -0.0000  -0.0000  -0.0000  -0.0000  -0.0000  -0.0000  -0.0000
    -0.0000  -0.0000  -0.0000  -0.0000  -0.0000  -0.0000  -0.0000  -0.0000
    -0.0000  -0.0000  -0.0000  -0.0000  -0.0000  -0.0000  -0.0000  -0.0000
    -0.0000  -0.0000  -0.0000  -0.0000  -0.0000  -0.0000  -0.0000  -0.0000
    -0.0000  -0.0000  -0.0000  -0.0000  -0.0000  -0.0000

[...]

          k = 0.2500-0.2500-0.2500 ( 17172 PWs)   bands (ev):

[...]

          k =-0.5000 0.0000 0.0000 ( 17080 PWs)   bands (ev):

[...]

          k =-0.2500-0.2500-0.2500 ( 17172 PWs)   bands (ev):

    -8.3384  -8.3379  -7.9551  -7.9551  -7.9550  -7.9550  -7.9550  -7.9542
    -7.6652  -7.6649  -7.6649  -7.6645  -7.6645  -7.6640  -7.4521  -7.4521
    -7.4520  -7.4519  -7.4501  -7.4501  -7.4242  -7.4242  -7.4236  -7.4235
    -7.4235  -7.4231  -7.3307  -7.3307  -7.3306  -7.3305  -7.3304  -7.3304
    -7.3303  -7.3298  -7.3295  -7.3295  -7.3275  -7.3275  -7.3139  -7.3134
    -7.0873  -7.0873  -7.0871  -7.0862  -7.0862  -7.0862  -7.0685  -7.0685
    -7.0676  -7.0675  -7.0675  -7.0675  -7.0673  -7.0670  -7.0670  -7.0670
    -7.0652  -7.0652  -6.9282  -6.9282  -6.9279  -6.9279  -6.9276  -6.9273
     1.5626   1.5626   1.5642   1.5652   1.5715   1.5715   1.7639   1.7703
     2.1205   2.1211   2.1211   2.1254   2.1254   2.1327   2.2401   2.2401
     2.2408   2.2411   2.2411   2.2412   2.2415   2.2458   2.2464   2.2464
     2.2539   2.2539   2.3665   2.3665   2.3667   2.3676   2.3792   2.3792
     2.7903   2.7903   2.7976   2.7976   2.8124   2.8124   2.8127   2.8130
     2.8130   2.8133   2.8133   2.8150   2.8150   2.8166   2.8331   2.8331
     2.8788   2.8788   2.8791   2.8859   2.8859   2.8889   2.9090   2.9091
     2.9093   2.9093   2.9195   2.9195   2.9590   2.9597   2.9597   2.9627
     2.9630   2.9630   2.9630   2.9631   2.9631   2.9654   2.9766   2.9766
     3.0026   3.0029   3.0029   3.0029   3.0113   3.0113   3.0200   3.0200
     3.0204   3.0209   3.0212   3.0216   3.0216   3.0241   3.0241   3.0303
     3.0414   3.0431   3.0431   3.0454   3.0454   3.0466   3.0723   3.0723
     3.1488   3.1488   3.1523   3.1525   3.1526   3.1530   3.1530   3.1535
     3.1535   3.1546   3.1670   3.1670   3.1695   3.1695   3.1703   3.1825
     3.1825   3.2047   3.3025   3.3025   3.3044   3.3064   3.3129   3.3129
     3.3625   3.3625   3.3632   3.3632   3.3828   3.3828   3.6589   3.6589
     3.6592   3.6592   3.6593   3.6596   3.6596   3.6653   3.6653   3.6787
     3.6787   3.6817   4.1256   4.1310   4.1310   4.1333   4.1391   4.1391
     4.1675   4.1675   4.1676   4.1679   4.1834   4.1834   4.2288   4.2290
     4.2290   4.2291   4.2491   4.2491   4.2558   4.2558   4.2574   4.2611
     4.2720   4.2720   4.2967   4.2987   4.2987   4.3014   4.3014   4.3042
     4.3868   4.3875   4.3875   4.3901   4.3901   4.4007   4.4523   4.4523
     4.4560   4.4560   4.4560   4.4561   4.4561   4.4561   4.4564   4.4643
     4.4737   4.4737   4.6544   4.6545   4.6545   4.6605   4.6605   4.6630
     4.7686   4.7688   4.7690   4.7690   4.7935   4.7935   4.8918   4.8934
     4.8934   4.8968   4.8968   4.9024   4.9054   4.9064   4.9064   4.9141
     4.9141   4.9161   5.2833   5.2833   5.2853   5.2870   5.2871   5.2872
     5.2872   5.2876   5.2876   5.2902   5.2902   5.3217   5.3392   5.3392
     5.3431   5.3431   5.4481   5.4559   5.4559   5.4562   5.4564   5.4564
     5.4566   5.4567   5.4567   5.4569   5.4737   5.4737   5.5651   5.5651
     5.5690   5.5690   5.5697   5.5697   5.7121   5.7121   5.7157   5.7157
     5.7180   5.7180   5.8667   5.8667   5.8700   5.8702   5.8711   5.8711
     6.2153   6.2181   6.2181   6.2212   6.2230   6.2230   6.4650   6.4650
     6.4666   6.4683   6.4683   6.4731   6.7856   6.7856   6.7862   6.7874
     6.7877   6.7877   6.7914   6.7914   6.7920   6.7920   6.7922   6.7923
     6.7924   6.7925   6.7925   6.7931   6.8029   6.8029   7.0640   7.0640
     7.0660   7.0661   7.0662   7.0662   7.0662   7.0662   7.0663   7.0668
     7.0668   7.0715   7.1024   7.1024   7.1025   7.1038   7.1046   7.1046
     7.2138   7.2138   7.2146   7.2148   7.2148   7.2148   7.2151   7.2152
     7.2154   7.2154   7.2184   7.2184   7.2268   7.2283   7.2376   7.2376
     7.2380   7.2382   7.2382   7.2447   7.2450   7.2450   7.2464   7.2472
     7.2494   7.2494   7.4700   7.4700   7.4707   7.4710   7.4710   7.4711
     7.4965   7.4965   7.4971   7.4976   7.4976   7.4976   7.7538   7.7538
     7.7550   7.7550   7.7550   7.7551   7.7556   7.7556   7.7557   7.7559
     7.7573   7.7573   7.8963   7.8966   7.9059   7.9059   7.9075   7.9078
     7.9088   7.9088   7.9339   7.9339   7.9361   7.9364   7.9376   7.9376
     7.9816   7.9816   7.9820   7.9820   7.9825   7.9825   8.1350   8.1350
     8.1354   8.1356   8.1356   8.1361   8.2077   8.2077   8.2091   8.2091
     8.6104   8.6104   8.6104   8.6108   8.6108   8.6108   8.6108   8.6108
     8.6110   8.6122   8.6174   8.6174   8.8665   8.8665   8.8671   8.8674
     8.8674   8.8679   8.8814   8.8814   8.8836   8.8839   8.8839   8.8839
     8.8840   8.8840   8.8841   8.8844   8.8874   8.8874   8.8906   8.8906
[...]
     9.1904   9.1907   9.1908   9.1908   9.1928   9.1928   9.2107   9.2107
     9.2116   9.2119   9.2150   9.2150   9.3874   9.3874   9.3894   9.3894
    12.6914  12.6914  12.7062  12.7071  12.7074  12.7074  12.7228  12.7228
    12.7284  12.7293  12.7294  12.7294  12.7982  12.7982  12.8117  12.8130
    12.8135  12.8135  12.8135  12.8136  12.8136  12.8137  12.8137  12.8138
    13.0378  13.0378  13.0476  13.0476  13.0482  13.0483  13.0715  13.0715
    13.0761  13.0761  13.1157  13.1157  13.1263  13.1263  13.1267  13.1267
    13.1295  13.1295  13.1316  13.1316  13.1322  13.1322  13.1873  13.1873
    13.1998  13.1998  13.2007  13.2007  13.2007  13.2008  13.2009  13.2010
    13.2010  13.2015  13.2095  13.2095  13.2122  13.2122  13.2124  13.2126
    13.6074  13.6077  15.5772  15.5772  15.5772  15.5772  15.5785  15.5790
    16.3165  16.3167  16.4248  16.4248  16.4249  16.4249  16.4261  16.4264
    17.3644  17.3644  17.3646  17.3646  17.3647  17.3655  17.4276  17.4276
    17.4277  17.4277  17.4292  17.4296  17.4368  17.4368  17.4370  17.4370
    17.4395  17.4398  18.1270  18.1272  18.1274  18.1277

     occupation numbers
     1.0000   1.0000   1.0000   1.0000   1.0000   1.0000   1.0000   1.0000
     1.0000   1.0000   1.0000   1.0000   1.0000   1.0000   1.0000   1.0000
     1.0000   1.0000   1.0000   1.0000   1.0000   1.0000   1.0000   1.0000
     1.0000   1.0000   1.0000   1.0000   1.0000   1.0000   1.0000   1.0000
     1.0000   1.0000   1.0000   1.0000   1.0000   1.0000   1.0000   1.0000
     1.0000   1.0000   1.0000   1.0000   1.0000   1.0000   1.0000   1.0000
     1.0000   1.0000   1.0000   1.0000   1.0000   1.0000   1.0000   1.0000
     1.0000   1.0000   1.0000   1.0000   1.0000   1.0000   1.0000   1.0000
     1.0000   1.0000   1.0000   1.0000   1.0000   1.0000   1.0000   1.0000
     1.0000   1.0000   1.0000   1.0000   1.0000   1.0000   1.0000   1.0000
     1.0000   1.0000   1.0000   1.0000   1.0000   1.0000   1.0000   1.0000
     1.0000   1.0000   1.0000   1.0000   1.0000   1.0000   1.0000   1.0000
     1.0000   1.0000   1.0000   1.0000   1.0000   1.0000   1.0000   1.0000
     1.0000   1.0000   1.0000   1.0000   1.0000   1.0000   1.0000   1.0000
     1.0000   1.0000   1.0000   1.0000   1.0000   1.0000   1.0000   1.0000
     1.0000   1.0000   1.0000   1.0000   1.0000   1.0000   1.0000   1.0000
     1.0000   1.0000   1.0000   1.0000   1.0000   1.0000   1.0000   1.0000
     1.0000   1.0000   1.0000   1.0000   1.0000   1.0000   1.0000   1.0000
     1.0000   1.0000   1.0000   1.0000   1.0000   1.0000   1.0000   1.0000
     1.0000   1.0000   1.0000   1.0000   1.0000   1.0000   1.0000   1.0000
     1.0000   1.0000   1.0000   1.0000   1.0000   1.0000   1.0000   1.0000
     1.0000   1.0000   1.0000   1.0000   1.0000   1.0000   1.0000   1.0000
     1.0000   1.0000   1.0000   1.0000   1.0000   1.0000   1.0000   1.0000
     1.0000   1.0000   1.0000   1.0000   1.0000   1.0000   1.0000   1.0000
     1.0000   1.0000   1.0000   1.0000   1.0000   1.0000   1.0000   1.0000
     1.0000   1.0000   1.0000   1.0000   1.0000   1.0000   1.0000   1.0000
     1.0000   1.0000   1.0000   1.0000   1.0000   1.0000   1.0000   1.0000
     1.0000   1.0000   1.0000   1.0000   1.0000   1.0000   1.0000   1.0000
     1.0000   1.0000   1.0000   1.0000   1.0000   1.0000   1.0000   1.0000
     1.0000   1.0000   1.0000   1.0000   1.0000   1.0000   1.0000   1.0000
     1.0000   1.0000   1.0000   1.0000   1.0000   1.0000   1.0000   1.0000
     1.0000   1.0000   1.0000   1.0000   1.0000   1.0000   1.0000   1.0000
     1.0000   1.0000   1.0000   1.0000   1.0000   1.0000   1.0000   1.0000
     1.0000   1.0000   1.0000   1.0000   1.0000   1.0000   1.0000   1.0000
     1.0000   1.0000   1.0000   1.0000   1.0000   1.0000   1.0000   1.0000
     1.0000   1.0000   1.0000   1.0000   1.0000   1.0000   1.0000   1.0000
     1.0000   1.0000   1.0000   1.0000   1.0000   1.0000   1.0000   1.0000
     1.0000   1.0000   1.0000   1.0000   1.0000   1.0000   1.0000   1.0000
     1.0000   1.0000   1.0000   1.0000   1.0000   1.0000   1.0000   1.0000
     1.0000   1.0000   1.0000   1.0000   1.0000   1.0000   1.0000   1.0000
     1.0000   1.0000   1.0000   1.0000   1.0000   1.0000   1.0000   1.0000
     1.0000   1.0000   1.0000   1.0000   1.0000   1.0000   1.0000   1.0000
     1.0000   1.0000   1.0000   1.0000   1.0000   1.0000   1.0000   1.0000
     1.0000   1.0000   1.0000   1.0000   1.0000   1.0000   1.0000   1.0000
     1.0000   1.0000   1.0000   1.0000   1.0000   1.0000   1.0000   1.0000
     1.0000   1.0000   1.0000   1.0000   1.0000   1.0000   1.0000   1.0000
     1.0000   1.0000   1.0000   1.0000   1.0000   1.0000   1.0000   1.0000
     1.0000   1.0000   1.0000   1.0000   1.0000   1.0000   1.0000   1.0000
     1.0000   1.0000   1.0000   1.0000   1.0000   1.0000   1.0000   1.0000
     1.0000   1.0000   1.0000   1.0000   1.0000   1.0000   1.0000   1.0000
     1.0000   1.0000   1.0000   1.0000   1.0000   1.0000   1.0000   1.0000
     1.0000   1.0000   1.0000   1.0000   1.0000   1.0000   1.0000   1.0000
     1.0000   1.0000   1.0000   1.0000   1.0000   1.0000   1.0000   1.0000
     1.0000   1.0000   1.0000   1.0000   1.0000   1.0000   1.0000   1.0000
     1.0000   1.0000   1.0000   1.0000   1.0000   1.0000   1.0000   1.0000
     1.0000   1.0000   1.0000   1.0000   1.0000   1.0000   1.0000   1.0000
     1.0000   1.0000   1.0000   1.0000   1.0000   1.0000   1.0000   1.0000
     1.0000   1.0000   1.0000   1.0000   1.0000   1.0000   1.0000   1.0000
     1.0000   1.0000   1.0000   1.0000   1.0000   1.0000   1.0000   1.0000
     1.0000   1.0000   1.0000   1.0000   1.0000   1.0000   1.0000   1.0000
[...]
     1.0000   1.0000   1.0000   1.0000   1.0000   1.0000   1.0000   1.0000
     1.0000   1.0000   1.0000   1.0000   1.0000   1.0000   1.0000   1.0000
    -0.0000  -0.0000  -0.0000  -0.0000  -0.0000  -0.0000  -0.0000  -0.0000
    -0.0000  -0.0000  -0.0000  -0.0000  -0.0000  -0.0000  -0.0000  -0.0000
    -0.0000  -0.0000  -0.0000  -0.0000  -0.0000  -0.0000  -0.0000  -0.0000
    -0.0000  -0.0000  -0.0000  -0.0000  -0.0000  -0.0000  -0.0000  -0.0000
    -0.0000  -0.0000  -0.0000  -0.0000  -0.0000  -0.0000  -0.0000  -0.0000
    -0.0000  -0.0000  -0.0000  -0.0000  -0.0000  -0.0000  -0.0000  -0.0000
    -0.0000  -0.0000  -0.0000  -0.0000  -0.0000  -0.0000  -0.0000  -0.0000
    -0.0000  -0.0000  -0.0000  -0.0000  -0.0000  -0.0000  -0.0000  -0.0000
    -0.0000  -0.0000  -0.0000  -0.0000  -0.0000  -0.0000  -0.0000  -0.0000
    -0.0000  -0.0000  -0.0000  -0.0000  -0.0000  -0.0000  -0.0000  -0.0000
    -0.0000  -0.0000  -0.0000  -0.0000  -0.0000  -0.0000  -0.0000  -0.0000
    -0.0000  -0.0000  -0.0000  -0.0000  -0.0000  -0.0000  -0.0000  -0.0000
    -0.0000  -0.0000  -0.0000  -0.0000  -0.0000  -0.0000

     the Fermi energy is    11.6529 ev

!    total energy              =   -4272.55412798 Ry
     Harris-Foulkes estimate   =   -4272.55412798 Ry
     estimated scf accuracy    <          4.3E-14 Ry

     The total energy is the sum of the following terms:

     one-electron contribution =    -522.30479752 Ry
     hartree contribution      =     874.62428700 Ry
     xc contribution           =   -1590.17168634 Ry
     ewald contribution        =   -3038.16282038 Ry
     Hubbard energy            =       3.46088926 Ry
     smearing contrib. (-TS)   =       0.00000000 Ry

     total magnetization       =     0.00    -0.00     0.00 Bohr mag/cell
     absolute magnetization    =    56.14 Bohr mag/cell

     convergence has been achieved in  19 iterations

     General routines

     Parallel routines

     Hubbard U routines

   This run was terminated on:  19: 6:51  19May2020

   JOB DONE.